\Problem name: compact

Minimize
OBJROW: C
Subject To
ord(0,1):  x(0,0) - x(0,2) >= 10
ord(0,2):  - x(0,0) + x(0,1) >= 8
ord(1,1):  - x(1,0) + x(1,2) >= 9
ord(1,2):  x(1,1) - x(1,2) >= 3
ord(2,1):  x(2,1) - x(2,2) >= 3
ord(2,2):  x(2,0) - x(2,1) >= 8
triangle2(0,1,0):  y(0,1,0) + y(1,0,0) = 1
triangle2(0,1,1):  y(0,1,1) + y(1,0,1) = 1
triangle2(0,1,2):  y(0,1,2) + y(1,0,2) = 1
triangle2(0,2,0):  y(0,2,0) + y(2,0,0) = 1
triangle2(0,2,1):  y(0,2,1) + y(2,0,1) = 1
triangle2(0,2,2):  y(0,2,2) + y(2,0,2) = 1
triangle2(1,2,0):  y(1,2,0) + y(2,1,0) = 1
triangle2(1,2,1):  y(1,2,1) + y(2,1,1) = 1
triangle2(1,2,2):  y(1,2,2) + y(2,1,2) = 1
MCLinV(0,1,0):  x(0,0) - v(0,1,0) - x(1,0) = 9
MCLinV(1,0,0):  - x(0,0) - v(1,0,0) + x(1,0) = 8
MCLin1(0,1,0):  u(0,1,0) >= -0
MCLin2(0,1,0):  -43 y(1,0,0) - u(0,1,0) <= -0
MCLin3(0,1,0):  37 y(1,0,0) + v(0,1,0) - u(0,1,0) <= 37
MCLin4(0,1,0):  37 y(1,0,0) - u(0,1,0) >= -0
MCLin5(0,1,0):  -43 y(1,0,0) + v(0,1,0) - u(0,1,0) >= -43
MCLin6(1,0,0):  u(1,0,0) >= -0
MCLin7(1,0,0):  -54 y(0,1,0) - u(1,0,0) <= -0
MCLin8(1,0,0):  26 y(0,1,0) + v(1,0,0) - u(1,0,0) <= 26
MCLin9(1,0,0):  26 y(0,1,0) - u(1,0,0) >= -0
MCLin10(1,0,0):  -54 y(0,1,0) + v(1,0,0) - u(1,0,0) >= -54
MCLinV(0,1,1):  x(0,1) - v(0,1,1) - x(1,1) = 7
MCLinV(1,0,1):  - x(0,1) - v(1,0,1) + x(1,1) = 9
MCLin1(0,1,1):  u(0,1,1) >= -0
MCLin2(0,1,1):  -45 y(1,0,1) - u(0,1,1) <= -0
MCLin3(0,1,1):  35 y(1,0,1) + v(0,1,1) - u(0,1,1) <= 35
MCLin4(0,1,1):  35 y(1,0,1) - u(0,1,1) >= -0
MCLin5(0,1,1):  -45 y(1,0,1) + v(0,1,1) - u(0,1,1) >= -45
MCLin6(1,0,1):  u(1,0,1) >= -0
MCLin7(1,0,1):  -51 y(0,1,1) - u(1,0,1) <= -0
MCLin8(1,0,1):  29 y(0,1,1) + v(1,0,1) - u(1,0,1) <= 29
MCLin9(1,0,1):  29 y(0,1,1) - u(1,0,1) >= -0
MCLin10(1,0,1):  -51 y(0,1,1) + v(1,0,1) - u(1,0,1) >= -51
MCLinV(0,1,2):  x(0,2) - v(0,1,2) - x(1,2) = 3
MCLinV(1,0,2):  - x(0,2) - v(1,0,2) + x(1,2) = 10
MCLin1(0,1,2):  u(0,1,2) >= -0
MCLin2(0,1,2):  -56 y(1,0,2) - u(0,1,2) <= -0
MCLin3(0,1,2):  24 y(1,0,2) + v(0,1,2) - u(0,1,2) <= 24
MCLin4(0,1,2):  24 y(1,0,2) - u(0,1,2) >= -0
MCLin5(0,1,2):  -56 y(1,0,2) + v(0,1,2) - u(0,1,2) >= -56
MCLin6(1,0,2):  u(1,0,2) >= -0
MCLin7(1,0,2):  -37 y(0,1,2) - u(1,0,2) <= -0
MCLin8(1,0,2):  43 y(0,1,2) + v(1,0,2) - u(1,0,2) <= 43
MCLin9(1,0,2):  43 y(0,1,2) - u(1,0,2) >= -0
MCLin10(1,0,2):  -37 y(0,1,2) + v(1,0,2) - u(1,0,2) >= -37
MCLinV(0,2,0):  x(0,0) - v(0,2,0) - x(2,0) = 6
MCLinV(2,0,0):  - x(0,0) - v(2,0,0) + x(2,0) = 8
MCLin1(0,2,0):  u(0,2,0) >= -0
MCLin2(0,2,0):  -53 y(2,0,0) - u(0,2,0) <= -0
MCLin3(0,2,0):  29 y(2,0,0) + v(0,2,0) - u(0,2,0) <= 29
MCLin4(0,2,0):  29 y(2,0,0) - u(0,2,0) >= -0
MCLin5(0,2,0):  -53 y(2,0,0) + v(0,2,0) - u(0,2,0) >= -53
MCLin6(2,0,0):  u(2,0,0) >= -0
MCLin7(2,0,0):  -43 y(0,2,0) - u(2,0,0) <= -0
MCLin8(2,0,0):  39 y(0,2,0) + v(2,0,0) - u(2,0,0) <= 39
MCLin9(2,0,0):  39 y(0,2,0) - u(2,0,0) >= -0
MCLin10(2,0,0):  -43 y(0,2,0) + v(2,0,0) - u(2,0,0) >= -43
MCLinV(0,2,1):  x(0,1) - v(0,2,1) - x(2,1) = 8
MCLinV(2,0,1):  - x(0,1) - v(2,0,1) + x(2,1) = 9
MCLin1(0,2,1):  u(0,2,1) >= -0
MCLin2(0,2,1):  -39 y(2,0,1) - u(0,2,1) <= -0
MCLin3(0,2,1):  43 y(2,0,1) + v(0,2,1) - u(0,2,1) <= 43
MCLin4(0,2,1):  43 y(2,0,1) - u(0,2,1) >= -0
MCLin5(0,2,1):  -39 y(2,0,1) + v(0,2,1) - u(0,2,1) >= -39
MCLin6(2,0,1):  u(2,0,1) >= -0
MCLin7(2,0,1):  -60 y(0,2,1) - u(2,0,1) <= -0
MCLin8(2,0,1):  22 y(0,2,1) + v(2,0,1) - u(2,0,1) <= 22
MCLin9(2,0,1):  22 y(0,2,1) - u(2,0,1) >= -0
MCLin10(2,0,1):  -60 y(0,2,1) + v(2,0,1) - u(2,0,1) >= -60
MCLinV(0,2,2):  x(0,2) - v(0,2,2) - x(2,2) = 3
MCLinV(2,0,2):  - x(0,2) - v(2,0,2) + x(2,2) = 10
MCLin1(0,2,2):  u(0,2,2) >= -0
MCLin2(0,2,2):  -49 y(2,0,2) - u(0,2,2) <= -0
MCLin3(0,2,2):  33 y(2,0,2) + v(0,2,2) - u(0,2,2) <= 33
MCLin4(0,2,2):  33 y(2,0,2) - u(0,2,2) >= -0
MCLin5(0,2,2):  -49 y(2,0,2) + v(0,2,2) - u(0,2,2) >= -49
MCLin6(2,0,2):  u(2,0,2) >= -0
MCLin7(2,0,2):  -46 y(0,2,2) - u(2,0,2) <= -0
MCLin8(2,0,2):  36 y(0,2,2) + v(2,0,2) - u(2,0,2) <= 36
MCLin9(2,0,2):  36 y(0,2,2) - u(2,0,2) >= -0
MCLin10(2,0,2):  -46 y(0,2,2) + v(2,0,2) - u(2,0,2) >= -46
MCLinV(1,2,0):  x(1,0) - v(1,2,0) - x(2,0) = 6
MCLinV(2,1,0):  - x(1,0) - v(2,1,0) + x(2,0) = 9
MCLin1(1,2,0):  u(1,2,0) >= -0
MCLin2(1,2,0):  -63 y(2,1,0) - u(1,2,0) <= -0
MCLin3(1,2,0):  27 y(2,1,0) + v(1,2,0) - u(1,2,0) <= 27
MCLin4(1,2,0):  27 y(2,1,0) - u(1,2,0) >= -0
MCLin5(1,2,0):  -63 y(2,1,0) + v(1,2,0) - u(1,2,0) >= -63
MCLin6(2,1,0):  u(2,1,0) >= -0
MCLin7(2,1,0):  -42 y(1,2,0) - u(2,1,0) <= -0
MCLin8(2,1,0):  48 y(1,2,0) + v(2,1,0) - u(2,1,0) <= 48
MCLin9(2,1,0):  48 y(1,2,0) - u(2,1,0) >= -0
MCLin10(2,1,0):  -42 y(1,2,0) + v(2,1,0) - u(2,1,0) >= -42
MCLinV(1,2,1):  x(1,1) - v(1,2,1) - x(2,1) = 8
MCLinV(2,1,1):  - x(1,1) - v(2,1,1) + x(2,1) = 7
MCLin1(1,2,1):  u(1,2,1) >= -0
MCLin2(1,2,1):  -45 y(2,1,1) - u(1,2,1) <= -0
MCLin3(1,2,1):  45 y(2,1,1) + v(1,2,1) - u(1,2,1) <= 45
MCLin4(1,2,1):  45 y(2,1,1) - u(1,2,1) >= -0
MCLin5(1,2,1):  -45 y(2,1,1) + v(1,2,1) - u(1,2,1) >= -45
MCLin6(2,1,1):  u(2,1,1) >= -0
MCLin7(2,1,1):  -60 y(1,2,1) - u(2,1,1) <= -0
MCLin8(2,1,1):  30 y(1,2,1) + v(2,1,1) - u(2,1,1) <= 30
MCLin9(2,1,1):  30 y(1,2,1) - u(2,1,1) >= -0
MCLin10(2,1,1):  -60 y(1,2,1) + v(2,1,1) - u(2,1,1) >= -60
MCLinV(1,2,2):  x(1,2) - v(1,2,2) - x(2,2) = 3
MCLinV(2,1,2):  - x(1,2) - v(2,1,2) + x(2,2) = 3
MCLin1(1,2,2):  u(1,2,2) >= -0
MCLin2(1,2,2):  -40 y(2,1,2) - u(1,2,2) <= -0
MCLin3(1,2,2):  50 y(2,1,2) + v(1,2,2) - u(1,2,2) <= 50
MCLin4(1,2,2):  50 y(2,1,2) - u(1,2,2) >= -0
MCLin5(1,2,2):  -40 y(2,1,2) + v(1,2,2) - u(1,2,2) >= -40
MCLin6(2,1,2):  u(2,1,2) >= -0
MCLin7(2,1,2):  -56 y(1,2,2) - u(2,1,2) <= -0
MCLin8(2,1,2):  34 y(1,2,2) + v(2,1,2) - u(2,1,2) <= 34
MCLin9(2,1,2):  34 y(1,2,2) - u(2,1,2) >= -0
MCLin10(2,1,2):  -56 y(1,2,2) + v(2,1,2) - u(2,1,2) >= -56
makespan(0):  C - x(0,1) >= 9
makespan(1):  C - x(1,1) >= 7
makespan(2):  C - x(2,0) >= 6
cut_clique_0(012,0):  0.03571 x(0,0) + 0.03571 x(2,0) >= 1
cut_clique_0(012,1):  0.05051 x(0,1) + 0.00337 x(1,1) >= 1
cut_clique_0(012,2):  0.33333 x(0,2) + 0.10000 x(2,2) >= 1
cut_clique_0:  0.03896 x(0,1) + 0.00557 x(1,1) + 0.04947 x(0,2) + 0.01484 x(2,2) >= 1
cut_clique_1:  0.02226 x(0,1) + 0.01731 x(1,1) + 0.01319 x(2,1) + 0.09673 x(0,2) >= 1
cut_clique_2:  0.04446 x(0,1) + 0.00635 x(1,1) + 0.00282 x(2,1) + 0.00659 x(0,2) >= 1
Bounds
 0 <= C <= 63
 10 <= x(0,0) <= 46
 0 <= y(0,1,0) <= 1
 0 <= y(1,0,0) <= 1
 -43 <= v(0,1,0) <= 37
 -54 <= v(1,0,0) <= 26
 -630 <= u(0,1,0)
 -630 <= u(1,0,0)
 0 <= y(0,2,0) <= 1
 0 <= y(2,0,0) <= 1
 -53 <= v(0,2,0) <= 29
 -43 <= v(2,0,0) <= 39
 -630 <= u(0,2,0)
 -630 <= u(2,0,0)
 0 <= x(1,0) <= 44
 0 <= y(1,2,0) <= 1
 0 <= y(2,1,0) <= 1
 -63 <= v(1,2,0) <= 27
 -42 <= v(2,1,0) <= 48
 -630 <= u(1,2,0)
 -630 <= u(2,1,0)
 11 <= x(2,0) <= 57
 18 <= x(0,1) <= 54
 0 <= y(0,1,1) <= 1
 0 <= y(1,0,1) <= 1
 -45 <= v(0,1,1) <= 35
 -51 <= v(1,0,1) <= 29
 -630 <= u(0,1,1)
 -630 <= u(1,0,1)
 0 <= y(0,2,1) <= 1
 0 <= y(2,0,1) <= 1
 -39 <= v(0,2,1) <= 43
 -60 <= v(2,0,1) <= 22
 -630 <= u(0,2,1)
 -630 <= u(2,0,1)
 12 <= x(1,1) <= 56
 0 <= y(1,2,1) <= 1
 0 <= y(2,1,1) <= 1
 -45 <= v(1,2,1) <= 45
 -60 <= v(2,1,1) <= 30
 -630 <= u(1,2,1)
 -630 <= u(2,1,1)
 3 <= x(2,1) <= 49
 0 <= x(0,2) <= 36
 0 <= y(0,1,2) <= 1
 0 <= y(1,0,2) <= 1
 -56 <= v(0,1,2) <= 24
 -37 <= v(1,0,2) <= 43
 -630 <= u(0,1,2)
 -630 <= u(1,0,2)
 0 <= y(0,2,2) <= 1
 0 <= y(2,0,2) <= 1
 -49 <= v(0,2,2) <= 33
 -46 <= v(2,0,2) <= 36
 -630 <= u(0,2,2)
 -630 <= u(2,0,2)
 9 <= x(1,2) <= 53
 0 <= y(1,2,2) <= 1
 0 <= y(2,1,2) <= 1
 -40 <= v(1,2,2) <= 50
 -56 <= v(2,1,2) <= 34
 -630 <= u(1,2,2)
 -630 <= u(2,1,2)
 0 <= x(2,2) <= 46
Integers
C x(0,0) y(0,1,0) y(1,0,0) v(0,1,0) v(1,0,0) u(0,1,0) u(1,0,0) y(0,2,0) y(2,0,0) 
v(0,2,0) v(2,0,0) u(0,2,0) u(2,0,0) x(1,0) y(1,2,0) y(2,1,0) v(1,2,0) v(2,1,0) u(1,2,0) 
u(2,1,0) x(2,0) x(0,1) y(0,1,1) y(1,0,1) v(0,1,1) v(1,0,1) u(0,1,1) u(1,0,1) y(0,2,1) 
y(2,0,1) v(0,2,1) v(2,0,1) u(0,2,1) u(2,0,1) x(1,1) y(1,2,1) y(2,1,1) v(1,2,1) v(2,1,1) 
u(1,2,1) u(2,1,1) x(2,1) x(0,2) y(0,1,2) y(1,0,2) v(0,1,2) v(1,0,2) u(0,1,2) u(1,0,2) 
y(0,2,2) y(2,0,2) v(0,2,2) v(2,0,2) u(0,2,2) u(2,0,2) x(1,2) y(1,2,2) y(2,1,2) v(1,2,2) 
v(2,1,2) u(1,2,2) u(2,1,2) x(2,2) 
End
